1	1
2	1
3	2
4	1
5	1
6	3
7	1
8	1
9	3
10	3
11	1
12	1
13	3
14	3
15	1
16	3
17	1
18	2
19	2
20	3
21	1
22	2
23	3
24	1
25	3
26	1
27	1
28	2
29	1
30	1
31	3
32	1
33	1
34	2
35	3
36	1
37	2
38	2
39	3
40	2
41	1
42	1
43	3
44	3
45	3
46	2
47	1
48	3
49	1
50	3
51	2
52	1
53	1
54	1
55	1
56	2
57	3
58	1
59	2
60	3
61	1
62	1
63	2
64	2
65	3
66	3
67	2
68	3
69	1
70	1
71	1
72	3
73	3
74	2
75	2
76	2
77	1
78	2
79	1
80	2
81	1
82	3
83	3
84	1
85	1
86	3
87	3
88	1
89	1
90	3
91	1
92	1
93	1
94	2
95	1
96	3
97	3
98	3
99	1
100	1
